(set-info :Origin "This instance was generated by: BanditFuzz-- an RL fuzzer for SMT solvers" )
(set-info :Author "Joe Scott, Fed Mora, Vijay Ganesh" )
(set-info :Contact "Joe Scott, joseph.scott@uwaterloo.ca")
(set-logic QF_BV)
(declare-const bool_0 Bool)
(declare-const bool_1 Bool)
(declare-const bool_2 Bool)
(declare-const bool_3 Bool)
(declare-const bool_4 Bool)
(declare-const bv_0 (_ BitVec 32))
(declare-const bv_1 (_ BitVec 32))
(declare-const bv_2 (_ BitVec 32))
(declare-const bv_3 (_ BitVec 32))
(declare-const bv_4 (_ BitVec 32))
(assert (bvugt (bvor (bvand bv_3 #x6df68997 ) (bvsdiv bv_2 bv_0)) (bvsrem (bvsrem bv_0 bv_0) (bvsub bv_0 #xdf363d61 ))))
(assert (bvugt (bvsrem (bvxnor bv_3 bv_0) (bvurem bv_3 bv_2)) (bvshl (bvxor #x36974fe9  #xaa96d409 ) (bvxor #x871190e7  #x0d406c4e ))))
(assert (bvugt (bvsdiv (bvadd #xa163af01  #xd2675dc7 ) (bvxor bv_0 bv_2)) (bvand (bvsub bv_1 bv_4) (bvxnor bv_2 bv_2))))
(assert (bvsgt (bvand (bvshl bv_3 bv_3) (bvshl #x657da7c8  bv_3)) (bvurem (bvadd #x85fd7164  #xaa37ca43 ) (bvurem #x327d01b7  #x234928f8 ))))
(assert (bvult (bvmul (bvadd #x8806ad30  #x8cdebfaa ) (bvnand bv_1 #x93ad3b41 )) (bvmul (bvshl bv_4 bv_2) (bvnor bv_1 bv_4))))
(check-sat)
(exit)
